% project_assignment_1.dzn

n = 7; % 20 students to consider
p = 7; % topics
l = 7;

projectToLecturer = [2, 5, 1, 4, 3, 7, 6];

% student 1 ranks project 1 at 4, project 2 at 2, etc. 
studentProjectRanks = 
[|4, 2, 3, 1, 5, 6, 7|
  5, 1, 3, 2, 4, 7, 6|
  3, 1, 5, 2, 4, 6, 7|
  1, 3, 5, 2, 4, 7, 6|
  2, 3, 1, 5, 4, 6, 7|
  1, 2, 3, 4, 5, 6, 7|
  2, 3, 4, 5, 6, 7, 1|
  ];
  
% some default values for now
minPerLecturer = 1; maxPerLecturer = 3;

% some default values for now
minPerProject = 1; maxPerProject= 3;
